(set-logic QF_S)
(set-option :parse-transducers true)
(set-option :produce-models true)
(define-fun-rec toLower ((x String) (y String)) Bool
   (or (and (= x "") (= y ""))
       (and (not (= x "")) (not (= y ""))
           (= (char.code (str.head y))
               (ite (and (<= 65 (char.code (str.head x)))
                       (<= (char.code (str.head x)) 90))
                   (+ (char.code (str.head x)) 32)
                   (char.code (str.head x))))
           (toLower (str.tail x) (str.tail y))))
)
(declare-fun sym209 () String)
(declare-fun sym3608 () String)
(declare-fun sym3707 () String)
(declare-fun sym817 () String)
(declare-fun sym1902 () String)
(declare-fun sym2548 () String)
(declare-fun sym551 () String)
(declare-fun sym1469 () String)
(declare-fun sym1687 () String)
(declare-fun sym2336 () String)
(declare-fun sym2972 () String)
(declare-fun sym1036 () String)
(declare-fun sym2760 () String)
(declare-fun sym1254 () String)
(declare-fun sym2120 () String)
(declare-fun sym3396 () String)
(declare-fun sym161 () String)
(declare-fun sym3184 () String)
(declare-fun L16  () String)
(declare-fun L29  () String)
(declare-fun L23  () String)
(declare-fun L34  () String)
(declare-fun L13  () String)
(declare-fun L14  () String)
(declare-fun L25  () String)
(declare-fun L26  () String)
(declare-fun L7  () String)
(declare-fun L8  () String)
(declare-fun L5  () String)
(declare-fun L11  () String)
(declare-fun L3  () String)
(declare-fun L4  () String)
(declare-fun L1  () String)
(declare-fun L2  () String)
(declare-fun L0  () String)
(define-fun Alphabet () RegLan 
	(re.* (re.union (str.to_re "A") (str.to_re "B") (str.to_re "C") (str.to_re "D") (str.to_re "E") (str.to_re "F") (str.to_re "G") (str.to_re "H") (str.to_re "I") (str.to_re "J") (str.to_re "K") (str.to_re "L") (str.to_re "M") (str.to_re "N") (str.to_re "O") (str.to_re "P") (str.to_re "Q") (str.to_re "R") (str.to_re "S") (str.to_re "T") (str.to_re "U") (str.to_re "V") (str.to_re "W") (str.to_re "X") (str.to_re "Y") (str.to_re "Z") (str.to_re "a") (str.to_re "b") (str.to_re "c") (str.to_re "d") (str.to_re "e") (str.to_re "f") (str.to_re "g") (str.to_re "h") (str.to_re "i") (str.to_re "j") (str.to_re "k") (str.to_re "l") (str.to_re "m") (str.to_re "n") (str.to_re "o") (str.to_re "p") (str.to_re "q") (str.to_re "r") (str.to_re "s") (str.to_re "t") (str.to_re "u") (str.to_re "v") (str.to_re "w") (str.to_re "x") (str.to_re "y") (str.to_re "z") ))
)
(assert (toLower (str.substr sym2760  0 1) L0 ))
(assert (toLower (str.substr sym2972  0 1) L2 ))
(assert (toLower (str.substr sym209  0 1) L1 ))
(assert (toLower (str.substr sym1469  0 1) L4 ))
(assert (toLower (str.substr sym1687  0 1) L3 ))
(assert (toLower (str.substr sym3184  0 1) L11 ))
(assert (toLower (str.substr sym2336  0 1) L5 ))
(assert (toLower (str.substr sym2120  0 1) L8 ))
(assert (toLower (str.substr sym817  0 1) L7 ))
(assert (toLower (str.substr sym1254  0 1) L26 ))
(assert (toLower (str.substr sym1036  0 1) L25 ))
(assert (toLower (str.substr sym3707  0 1) L14 ))
(assert (toLower (str.substr sym551  0 1) L13 ))
(assert (toLower (str.substr sym3608  0 1) L34 ))
(assert (toLower (str.substr sym1902  0 1) L23 ))
(assert (toLower (str.substr sym3396  0 1) L29 ))
(assert (toLower (str.substr sym2548  0 1) L16 ))

(assert (str.in_re sym3184 Alphabet))
(assert (str.in_re sym161 Alphabet))
(assert (str.in_re sym3396 Alphabet))
(assert (str.in_re sym2120 Alphabet))
(assert (str.in_re sym1254 Alphabet))
(assert (str.in_re sym2760 Alphabet))
(assert (str.in_re sym1036 Alphabet))
(assert (str.in_re sym2972 Alphabet))
(assert (str.in_re sym2336 Alphabet))
(assert (str.in_re sym1687 Alphabet))
(assert (str.in_re sym1469 Alphabet))
(assert (str.in_re sym551 Alphabet))
(assert (str.in_re sym2548 Alphabet))
(assert (str.in_re sym1902 Alphabet))
(assert (str.in_re sym817 Alphabet))
(assert (str.in_re sym3707 Alphabet))
(assert (str.in_re sym3608 Alphabet))
(assert (str.in_re sym209 Alphabet))(assert (<= 1 (str.len sym3396 )))
(assert (<= 1 (str.len sym1254 )))
(assert (<= 1 (str.len sym1469 )))
(assert (<= 1 (str.len sym1036 )))
(assert (<= 1 (str.len sym209 )))
(assert (<= 1 (str.len sym1687 )))
(assert (<= 1 (str.len sym3608 )))
(assert (<= 1 (str.len sym3707 )))
(assert (<= 1 (str.len sym2120 )))
(assert (<= 1 (str.len sym1902 )))
(assert (<= 1 (str.len sym551 )))
(assert (<= 1 (str.len sym2760 )))
(assert (<= 1 (str.len sym817 )))
(assert (<= 1 (str.len sym2336 )))
(assert (<= 1 (str.len sym2972 )))
(assert (<= 1 (str.len sym2548 )))
(assert (<= 1 (str.len sym3184 )))

(assert (not (= "" sym2548 )))
(assert (not (= L0 "q" )))
(assert (= L1 "y" ))
(assert (not (= L2 "q" )))
(assert (not (= L3 "q" )))
(assert (not (= L4 "q" )))
(assert (not (= "" sym2120 )))
(assert (not (= L5 "q" )))
(assert (= L0 "p" ))
(assert (not (= L7 "g" )))
(assert (not (= L8 "l" )))
(assert (not (= L7 "p" )))
(assert (not (= "" sym209 )))
(assert (not (= "" sym1254 )))
(assert (= L3 "h" ))
(assert (= L11 "p" ))
(assert (= "" "" ))
(assert (not (= "" sym3608 )))
(assert (not (= "n" "y" )))
(assert (not (= "" L1 )))
(assert (= L13 "p" ))
(assert (not (= L14 "y" )))
(assert (not (= L3 "g" )))
(assert (not (= L16 "q" )))
(assert (not (= "" "y" )))
(assert (not (= "" sym3184 )))
(assert (not (= "" sym2336 )))
(assert (not (= L7 "r" )))
(assert (not (= L3 "l" )))
(assert (= L7 "h" ))
(assert (not (= L8 "k" )))
(assert (not (= L8 "g" )))
(assert (not (= L8 "q" )))
(assert (not (= "" "q" )))
(assert (not (= "" sym817 )))
(assert (not (= L23 "q" )))
(assert (not (= L3 "p" )))
(assert (not (= L25 "q" )))
(assert (not (= L26 "l" )))
(assert (= "y" "y" ))
(assert (= L16 "p" ))
(assert (= L23 "p" ))
(assert (not (= "" sym1687 )))
(assert (not (= L29 "q" )))
(assert (not (= "" sym1469 )))
(assert (= L26 "h" ))
(assert (not (= "" sym3396 )))
(assert (not (= L3 "k" )))
(assert (not (= L26 "g" )))
(assert (not (= "" sym3707 )))
(assert (= L25 "p" ))
(assert (= L34 "p" ))
(assert (not (= L13 "q" )))
(assert (not (= L8 "p" )))
(assert (= L2 "p" ))
(assert (= L4 "p" ))
(assert (= L8 "h" ))
(assert (not (= "" sym1036 )))
(assert (not (= L26 "r" )))
(assert (= L5 "p" ))
(assert (not (= L8 "r" )))
(assert (not (= "" sym2972 )))
(assert (not (= "" sym551 )))
(assert (not (= L7 "l" )))
(assert (not (= "" "n" )))
(assert (not (= L26 "q" )))
(assert (not (= L34 "q" )))
(assert (not (= L26 "p" )))
(assert (not (= "" L14 )))
(assert (not (= "" sym2760 )))
(assert (not (= "y" "n" )))
(assert (= "" sym161 ))
(assert (not (= L7 "k" )))
(assert (= L29 "p" ))
(assert (not (= "" sym1902 )))
(assert (not (= L3 "r" )))
(assert (not (= "" "y" )))
(assert (not (= L26 "k" )))
(assert (not (= L11 "q" )))
(assert (not (= L7 "q" )))
(check-sat)
(get-model)
(exit)
